 Minimize
[ 1.0000000000000000 Z0 * Z50  ]
Subject to
c1: [ -6.2000000000000002 Z0 * Z1 -9.4000000000000004 Z0 * Z2 -7.5999999999999996 Z0 * Z3 -10.1999999999999993 Z0 * Z4 -1.6699999999999999 Z0 * Z5 -2.5299999999999998 Z0 * Z6 -2.0499999999999998 Z0 * Z7 -2.7500000000000000 Z0 * Z8 -3.5800000000000001 Z0 * Z9 -5.4199999999999999 Z0 * Z10 -4.3899999999999997 Z0 * Z11 -5.8899999999999997 Z0 * Z12 -4.5300000000000002 Z0 * Z13 -6.8700000000000001 Z0 * Z14 -5.5499999999999998 Z0 * Z15 -7.4500000000000002 Z0 * Z16 -2.6200000000000001 Z0 * Z17 -3.9800000000000000 Z0 * Z18 -3.2200000000000002 Z0 * Z19 -4.3200000000000003 Z0 * Z20  + 10.5000000000000000 Z0 * Z21  + 11.1999999999999993 Z0 * Z22  + 12.5000000000000000 Z0 * Z23  + 10.5000000000000000 Z0 * Z24  + 11.1999999999999993 Z0 * Z25  + 12.5000000000000000 Z0 * Z26  + 10.5000000000000000 Z0 * Z27  + 11.1999999999999993 Z0 * Z28  + 12.5000000000000000 Z0 * Z29  + 10.5000000000000000 Z0 * Z30  + 11.1999999999999993 Z0 * Z31  + 12.5000000000000000 Z0 * Z32 -260.0000000000000000 Z0 * Z41 -70.0000000000000000 Z0 * Z42 -150.0000000000000000 Z0 * Z43 -190.0000000000000000 Z0 * Z44 -110.0000000000000000 Z0 * Z45 -310.0000000000000000 Z0 * Z46 -470.0000000000000000 Z0 * Z47 -380.0000000000000000 Z0 * Z48 -510.0000000000000000 Z0 * Z49  + 1.0000000000000000 Z0 * Z50  ] = 0.000000
c2: [ -1.0000000000000000 Z0 * Z21 -1.0000000000000000 Z0 * Z24 -1.0000000000000000 Z0 * Z27 -1.0000000000000000 Z0 * Z30  ] <= -229.000000
c3: [ -1.0000000000000000 Z0 * Z22 -1.0000000000000000 Z0 * Z25 -1.0000000000000000 Z0 * Z28 -1.0000000000000000 Z0 * Z31  ] <= -173.000000
c4: [ -1.0000000000000000 Z0 * Z23 -1.0000000000000000 Z0 * Z26 -1.0000000000000000 Z0 * Z29 -1.0000000000000000 Z0 * Z32  ] <= -284.000000
c5: [ 1.0000000000000000 Z0 * Z21  + 1.0000000000000000 Z0 * Z24  + 1.0000000000000000 Z0 * Z27  + 1.0000000000000000 Z0 * Z30  ] <= 229.000000
c6: [ 1.0000000000000000 Z0 * Z22  + 1.0000000000000000 Z0 * Z25  + 1.0000000000000000 Z0 * Z28  + 1.0000000000000000 Z0 * Z31  ] <= 173.000000
c7: [ 1.0000000000000000 Z0 * Z23  + 1.0000000000000000 Z0 * Z26  + 1.0000000000000000 Z0 * Z29  + 1.0000000000000000 Z0 * Z32  ] <= 284.000000
c8: [ 1.0000000000000000 Z0 * Z1  + 1.0000000000000000 Z0 * Z5  + 1.0000000000000000 Z0 * Z9  + 1.0000000000000000 Z0 * Z13  + 1.0000000000000000 Z0 * Z17 -1.0000000000000000 Z0 * Z21 -1.0000000000000000 Z0 * Z22 -1.0000000000000000 Z0 * Z23  ] = 0.000000
c9: [ 1.0000000000000000 Z0 * Z2  + 1.0000000000000000 Z0 * Z6  + 1.0000000000000000 Z0 * Z10  + 1.0000000000000000 Z0 * Z14  + 1.0000000000000000 Z0 * Z18 -1.0000000000000000 Z0 * Z24 -1.0000000000000000 Z0 * Z25 -1.0000000000000000 Z0 * Z26  ] = 0.000000
c10: [ 1.0000000000000000 Z0 * Z3  + 1.0000000000000000 Z0 * Z7  + 1.0000000000000000 Z0 * Z11  + 1.0000000000000000 Z0 * Z15  + 1.0000000000000000 Z0 * Z19 -1.0000000000000000 Z0 * Z27 -1.0000000000000000 Z0 * Z28 -1.0000000000000000 Z0 * Z29  ] = 0.000000
c11: [ 1.0000000000000000 Z0 * Z4  + 1.0000000000000000 Z0 * Z8  + 1.0000000000000000 Z0 * Z12  + 1.0000000000000000 Z0 * Z16  + 1.0000000000000000 Z0 * Z20 -1.0000000000000000 Z0 * Z30 -1.0000000000000000 Z0 * Z31 -1.0000000000000000 Z0 * Z32  ] = 0.000000
c12: [ 0.1300000000000000 Z0 * Z1  + 0.8900000000000000 Z0 * Z5  + 0.6899999999999999 Z0 * Z9  + 0.2800000000000000 Z0 * Z13  + 0.3500000000000000 Z0 * Z17 -1.0000000000000000 Z21 * Z33 -1.0000000000000000 Z22 * Z33 -1.0000000000000000 Z23 * Z33  ] = 0.000000
c13: [ 0.8700000000000000 Z0 * Z1  + 0.1100000000000000 Z0 * Z5  + 0.3100000000000000 Z0 * Z9  + 0.7200000000000000 Z0 * Z13  + 0.6500000000000000 Z0 * Z17 -1.0000000000000000 Z21 * Z34 -1.0000000000000000 Z22 * Z34 -1.0000000000000000 Z23 * Z34  ] = 0.000000
c14: [ 0.1300000000000000 Z0 * Z2  + 0.8900000000000000 Z0 * Z6  + 0.6899999999999999 Z0 * Z10  + 0.2800000000000000 Z0 * Z14  + 0.3500000000000000 Z0 * Z18 -1.0000000000000000 Z24 * Z35 -1.0000000000000000 Z25 * Z35 -1.0000000000000000 Z26 * Z35  ] = 0.000000
c15: [ 0.8700000000000000 Z0 * Z2  + 0.1100000000000000 Z0 * Z6  + 0.3100000000000000 Z0 * Z10  + 0.7200000000000000 Z0 * Z14  + 0.6500000000000000 Z0 * Z18 -1.0000000000000000 Z24 * Z36 -1.0000000000000000 Z25 * Z36 -1.0000000000000000 Z26 * Z36  ] = 0.000000
c16: [ 0.1300000000000000 Z0 * Z3  + 0.8900000000000000 Z0 * Z7  + 0.6899999999999999 Z0 * Z11  + 0.2800000000000000 Z0 * Z15  + 0.3500000000000000 Z0 * Z19 -1.0000000000000000 Z27 * Z37 -1.0000000000000000 Z28 * Z37 -1.0000000000000000 Z29 * Z37  ] = 0.000000
c17: [ 0.8700000000000000 Z0 * Z3  + 0.1100000000000000 Z0 * Z7  + 0.3100000000000000 Z0 * Z11  + 0.7200000000000000 Z0 * Z15  + 0.6500000000000000 Z0 * Z19 -1.0000000000000000 Z27 * Z38 -1.0000000000000000 Z28 * Z38 -1.0000000000000000 Z29 * Z38  ] = 0.000000
c18: [ 0.1300000000000000 Z0 * Z4  + 0.8900000000000000 Z0 * Z8  + 0.6899999999999999 Z0 * Z12  + 0.2800000000000000 Z0 * Z16  + 0.3500000000000000 Z0 * Z20 -1.0000000000000000 Z30 * Z39 -1.0000000000000000 Z31 * Z39 -1.0000000000000000 Z32 * Z39  ] = 0.000000
c19: [ 0.8700000000000000 Z0 * Z4  + 0.1100000000000000 Z0 * Z8  + 0.3100000000000000 Z0 * Z12  + 0.7200000000000000 Z0 * Z16  + 0.6500000000000000 Z0 * Z20 -1.0000000000000000 Z30 * Z40 -1.0000000000000000 Z31 * Z40 -1.0000000000000000 Z32 * Z40  ] = 0.000000
c20: [ 0.5600000000000001 Z0 * Z21  + 0.5600000000000001 Z0 * Z24  + 0.5600000000000001 Z0 * Z27  + 0.5600000000000001 Z0 * Z30 -1.0000000000000000 Z21 * Z33 -1.0000000000000000 Z24 * Z35 -1.0000000000000000 Z27 * Z37 -1.0000000000000000 Z30 * Z39  ] <= 0.000000
c21: [ 0.4400000000000000 Z0 * Z21  + 0.4400000000000000 Z0 * Z24  + 0.4400000000000000 Z0 * Z27  + 0.4400000000000000 Z0 * Z30 -1.0000000000000000 Z21 * Z34 -1.0000000000000000 Z24 * Z36 -1.0000000000000000 Z27 * Z38 -1.0000000000000000 Z30 * Z40  ] <= 0.000000
c22: [ 0.3000000000000000 Z0 * Z22  + 0.3000000000000000 Z0 * Z25  + 0.3000000000000000 Z0 * Z28  + 0.3000000000000000 Z0 * Z31 -1.0000000000000000 Z22 * Z33 -1.0000000000000000 Z25 * Z35 -1.0000000000000000 Z28 * Z37 -1.0000000000000000 Z31 * Z39  ] <= 0.000000
c23: [ 0.7000000000000000 Z0 * Z22  + 0.7000000000000000 Z0 * Z25  + 0.7000000000000000 Z0 * Z28  + 0.7000000000000000 Z0 * Z31 -1.0000000000000000 Z22 * Z34 -1.0000000000000000 Z25 * Z36 -1.0000000000000000 Z28 * Z38 -1.0000000000000000 Z31 * Z40  ] <= 0.000000
c24: [ 0.4100000000000000 Z0 * Z23  + 0.4100000000000000 Z0 * Z26  + 0.4100000000000000 Z0 * Z29  + 0.4100000000000000 Z0 * Z32 -1.0000000000000000 Z23 * Z33 -1.0000000000000000 Z26 * Z35 -1.0000000000000000 Z29 * Z37 -1.0000000000000000 Z32 * Z39  ] <= 0.000000
c25: [ 0.5900000000000000 Z0 * Z23  + 0.5900000000000000 Z0 * Z26  + 0.5900000000000000 Z0 * Z29  + 0.5900000000000000 Z0 * Z32 -1.0000000000000000 Z23 * Z34 -1.0000000000000000 Z26 * Z36 -1.0000000000000000 Z29 * Z38 -1.0000000000000000 Z32 * Z40  ] <= 0.000000
c26: [ -0.5600000000000001 Z0 * Z21 -0.5600000000000001 Z0 * Z24 -0.5600000000000001 Z0 * Z27 -0.5600000000000001 Z0 * Z30  + 1.0000000000000000 Z21 * Z33  + 1.0000000000000000 Z24 * Z35  + 1.0000000000000000 Z27 * Z37  + 1.0000000000000000 Z30 * Z39  ] <= 0.000000
c27: [ -0.4400000000000000 Z0 * Z21 -0.4400000000000000 Z0 * Z24 -0.4400000000000000 Z0 * Z27 -0.4400000000000000 Z0 * Z30  + 1.0000000000000000 Z21 * Z34  + 1.0000000000000000 Z24 * Z36  + 1.0000000000000000 Z27 * Z38  + 1.0000000000000000 Z30 * Z40  ] <= 0.000000
c28: [ -0.3000000000000000 Z0 * Z22 -0.3000000000000000 Z0 * Z25 -0.3000000000000000 Z0 * Z28 -0.3000000000000000 Z0 * Z31  + 1.0000000000000000 Z22 * Z33  + 1.0000000000000000 Z25 * Z35  + 1.0000000000000000 Z28 * Z37  + 1.0000000000000000 Z31 * Z39  ] <= 0.000000
c29: [ -0.7000000000000000 Z0 * Z22 -0.7000000000000000 Z0 * Z25 -0.7000000000000000 Z0 * Z28 -0.7000000000000000 Z0 * Z31  + 1.0000000000000000 Z22 * Z34  + 1.0000000000000000 Z25 * Z36  + 1.0000000000000000 Z28 * Z38  + 1.0000000000000000 Z31 * Z40  ] <= 0.000000
c30: [ -0.4100000000000000 Z0 * Z23 -0.4100000000000000 Z0 * Z26 -0.4100000000000000 Z0 * Z29 -0.4100000000000000 Z0 * Z32  + 1.0000000000000000 Z23 * Z33  + 1.0000000000000000 Z26 * Z35  + 1.0000000000000000 Z29 * Z37  + 1.0000000000000000 Z32 * Z39  ] <= 0.000000
c31: [ -0.5900000000000000 Z0 * Z23 -0.5900000000000000 Z0 * Z26 -0.5900000000000000 Z0 * Z29 -0.5900000000000000 Z0 * Z32  + 1.0000000000000000 Z23 * Z34  + 1.0000000000000000 Z26 * Z36  + 1.0000000000000000 Z29 * Z38  + 1.0000000000000000 Z32 * Z40  ] <= 0.000000
c32: [ 1.0000000000000000 Z0 * Z1 -686.0000000000000000 Z0 * Z46  ] <= 0.000000
c33: [ 1.0000000000000000 Z0 * Z2 -686.0000000000000000 Z0 * Z47  ] <= 0.000000
c34: [ 1.0000000000000000 Z0 * Z3 -686.0000000000000000 Z0 * Z48  ] <= 0.000000
c35: [ 1.0000000000000000 Z0 * Z4 -686.0000000000000000 Z0 * Z49  ] <= 0.000000
c36: [ 1.0000000000000000 Z0 * Z5 -686.0000000000000000 Z0 * Z46  ] <= 0.000000
c37: [ 1.0000000000000000 Z0 * Z6 -686.0000000000000000 Z0 * Z47  ] <= 0.000000
c38: [ 1.0000000000000000 Z0 * Z7 -686.0000000000000000 Z0 * Z48  ] <= 0.000000
c39: [ 1.0000000000000000 Z0 * Z8 -686.0000000000000000 Z0 * Z49  ] <= 0.000000
c40: [ 1.0000000000000000 Z0 * Z9 -686.0000000000000000 Z0 * Z46  ] <= 0.000000
c41: [ 1.0000000000000000 Z0 * Z10 -686.0000000000000000 Z0 * Z47  ] <= 0.000000
c42: [ 1.0000000000000000 Z0 * Z11 -686.0000000000000000 Z0 * Z48  ] <= 0.000000
c43: [ 1.0000000000000000 Z0 * Z12 -686.0000000000000000 Z0 * Z49  ] <= 0.000000
c44: [ 1.0000000000000000 Z0 * Z13 -686.0000000000000000 Z0 * Z46  ] <= 0.000000
c45: [ 1.0000000000000000 Z0 * Z14 -686.0000000000000000 Z0 * Z47  ] <= 0.000000
c46: [ 1.0000000000000000 Z0 * Z15 -686.0000000000000000 Z0 * Z48  ] <= 0.000000
c47: [ 1.0000000000000000 Z0 * Z16 -686.0000000000000000 Z0 * Z49  ] <= 0.000000
c48: [ 1.0000000000000000 Z0 * Z17 -686.0000000000000000 Z0 * Z46  ] <= 0.000000
c49: [ 1.0000000000000000 Z0 * Z18 -686.0000000000000000 Z0 * Z47  ] <= 0.000000
c50: [ 1.0000000000000000 Z0 * Z19 -686.0000000000000000 Z0 * Z48  ] <= 0.000000
c51: [ 1.0000000000000000 Z0 * Z20 -686.0000000000000000 Z0 * Z49  ] <= 0.000000
c52: [ 1.0000000000000000 Z0 * Z1 -686.0000000000000000 Z0 * Z41  ] <= 0.000000
c53: [ 1.0000000000000000 Z0 * Z2 -686.0000000000000000 Z0 * Z41  ] <= 0.000000
c54: [ 1.0000000000000000 Z0 * Z3 -686.0000000000000000 Z0 * Z41  ] <= 0.000000
c55: [ 1.0000000000000000 Z0 * Z4 -686.0000000000000000 Z0 * Z41  ] <= 0.000000
c56: [ 1.0000000000000000 Z0 * Z5 -686.0000000000000000 Z0 * Z42  ] <= 0.000000
c57: [ 1.0000000000000000 Z0 * Z6 -686.0000000000000000 Z0 * Z42  ] <= 0.000000
c58: [ 1.0000000000000000 Z0 * Z7 -686.0000000000000000 Z0 * Z42  ] <= 0.000000
c59: [ 1.0000000000000000 Z0 * Z8 -686.0000000000000000 Z0 * Z42  ] <= 0.000000
c60: [ 1.0000000000000000 Z0 * Z9 -686.0000000000000000 Z0 * Z43  ] <= 0.000000
c61: [ 1.0000000000000000 Z0 * Z10 -686.0000000000000000 Z0 * Z43  ] <= 0.000000
c62: [ 1.0000000000000000 Z0 * Z11 -686.0000000000000000 Z0 * Z43  ] <= 0.000000
c63: [ 1.0000000000000000 Z0 * Z12 -686.0000000000000000 Z0 * Z43  ] <= 0.000000
c64: [ 1.0000000000000000 Z0 * Z13 -686.0000000000000000 Z0 * Z44  ] <= 0.000000
c65: [ 1.0000000000000000 Z0 * Z14 -686.0000000000000000 Z0 * Z44  ] <= 0.000000
c66: [ 1.0000000000000000 Z0 * Z15 -686.0000000000000000 Z0 * Z44  ] <= 0.000000
c67: [ 1.0000000000000000 Z0 * Z16 -686.0000000000000000 Z0 * Z44  ] <= 0.000000
c68: [ 1.0000000000000000 Z0 * Z17 -686.0000000000000000 Z0 * Z45  ] <= 0.000000
c69: [ 1.0000000000000000 Z0 * Z18 -686.0000000000000000 Z0 * Z45  ] <= 0.000000
c70: [ 1.0000000000000000 Z0 * Z19 -686.0000000000000000 Z0 * Z45  ] <= 0.000000
c71: [ 1.0000000000000000 Z0 * Z20 -686.0000000000000000 Z0 * Z45  ] <= 0.000000
c72: [ 1.0000000000000000 Z0 * Z21 -229.0000000000000000 Z0 * Z46  ] <= 0.000000
c73: [ 1.0000000000000000 Z0 * Z22 -173.0000000000000000 Z0 * Z46  ] <= 0.000000
c74: [ 1.0000000000000000 Z0 * Z23 -284.0000000000000000 Z0 * Z46  ] <= 0.000000
c75: [ 1.0000000000000000 Z0 * Z24 -229.0000000000000000 Z0 * Z47  ] <= 0.000000
c76: [ 1.0000000000000000 Z0 * Z25 -173.0000000000000000 Z0 * Z47  ] <= 0.000000
c77: [ 1.0000000000000000 Z0 * Z26 -284.0000000000000000 Z0 * Z47  ] <= 0.000000
c78: [ 1.0000000000000000 Z0 * Z27 -229.0000000000000000 Z0 * Z48  ] <= 0.000000
c79: [ 1.0000000000000000 Z0 * Z28 -173.0000000000000000 Z0 * Z48  ] <= 0.000000
c80: [ 1.0000000000000000 Z0 * Z29 -284.0000000000000000 Z0 * Z48  ] <= 0.000000
c81: [ 1.0000000000000000 Z0 * Z30 -229.0000000000000000 Z0 * Z49  ] <= 0.000000
c82: [ 1.0000000000000000 Z0 * Z31 -173.0000000000000000 Z0 * Z49  ] <= 0.000000
c83: [ 1.0000000000000000 Z0 * Z32 -284.0000000000000000 Z0 * Z49  ] <= 0.000000
ac1: Z0 - 1 = 0
Bounds
1 <= Z0 <= 1
0.0000000000000000 <= Z1 <= 686.0000000000000000
0.0000000000000000 <= Z2 <= 686.0000000000000000
0.0000000000000000 <= Z3 <= 686.0000000000000000
0.0000000000000000 <= Z4 <= 686.0000000000000000
0.0000000000000000 <= Z5 <= 686.0000000000000000
0.0000000000000000 <= Z6 <= 686.0000000000000000
0.0000000000000000 <= Z7 <= 686.0000000000000000
0.0000000000000000 <= Z8 <= 686.0000000000000000
0.0000000000000000 <= Z9 <= 686.0000000000000000
0.0000000000000000 <= Z10 <= 686.0000000000000000
0.0000000000000000 <= Z11 <= 686.0000000000000000
0.0000000000000000 <= Z12 <= 686.0000000000000000
0.0000000000000000 <= Z13 <= 686.0000000000000000
0.0000000000000000 <= Z14 <= 686.0000000000000000
0.0000000000000000 <= Z15 <= 686.0000000000000000
0.0000000000000000 <= Z16 <= 686.0000000000000000
0.0000000000000000 <= Z17 <= 686.0000000000000000
0.0000000000000000 <= Z18 <= 686.0000000000000000
0.0000000000000000 <= Z19 <= 686.0000000000000000
0.0000000000000000 <= Z20 <= 686.0000000000000000
0.0000000000000000 <= Z21 <= 229.0000000000000000
0.0000000000000000 <= Z22 <= 173.0000000000000000
0.0000000000000000 <= Z23 <= 284.0000000000000000
0.0000000000000000 <= Z24 <= 229.0000000000000000
0.0000000000000000 <= Z25 <= 173.0000000000000000
0.0000000000000000 <= Z26 <= 284.0000000000000000
0.0000000000000000 <= Z27 <= 229.0000000000000000
0.0000000000000000 <= Z28 <= 173.0000000000000000
0.0000000000000000 <= Z29 <= 284.0000000000000000
0.0000000000000000 <= Z30 <= 229.0000000000000000
0.0000000000000000 <= Z31 <= 173.0000000000000000
0.0000000000000000 <= Z32 <= 284.0000000000000000
0.1300000000000000 <= Z33 <= 0.8900000000000000
0.1100000000000000 <= Z34 <= 0.8700000000000000
0.1300000000000000 <= Z35 <= 0.8900000000000000
0.1100000000000000 <= Z36 <= 0.8700000000000000
0.1300000000000000 <= Z37 <= 0.8900000000000000
0.1100000000000000 <= Z38 <= 0.8700000000000000
0.1300000000000000 <= Z39 <= 0.8900000000000000
0.1100000000000000 <= Z40 <= 0.8700000000000000
0.0000000000000000 <= Z41 <= 1.0000000000000000
0.0000000000000000 <= Z42 <= 1.0000000000000000
0.0000000000000000 <= Z43 <= 1.0000000000000000
0.0000000000000000 <= Z44 <= 1.0000000000000000
0.0000000000000000 <= Z45 <= 1.0000000000000000
0.0000000000000000 <= Z46 <= 1.0000000000000000
0.0000000000000000 <= Z47 <= 1.0000000000000000
0.0000000000000000 <= Z48 <= 1.0000000000000000
0.0000000000000000 <= Z49 <= 1.0000000000000000
-100000000.0000000000000000 <= Z50 <= 100000000.0000000000000000
Binaries
Z41 Z42 Z43 Z44 Z45 Z46 Z47 Z48 Z49 
End